\ENCODING=ISO-8859-1
\Problem name: IloCplex

Minimize
 obj: z
Subject To
 c1:  - x_0 - x_1 - x_2 - x_3 - x_4 - x_5 - x_6 - x_7 - x_8 - x_9 - x_10 - x_11
      - x_12 >= -3
 c2:  x_0  = 1
 c3:  x_1 + x_12  = 1
 c4:  x_2 + x_12  = 1
 c5:  x_3 + x_11  = 1
 c6:  x_4 + x_12  = 1
 c7:  x_5 + x_12  = 1
 c8:  x_6 + x_11  = 1
 c9:  x_7 + x_11  = 1
 c10: x_8 + x_12  = 1
 c11: x_9 + x_11  = 1
 c12: z >= 0
 c13: z - 115 x_12 >= 0
 c14: z - 115 x_12 >= 0
 c15: z - 124 x_11 >= 0
 c16: z - 115 x_12 >= 0
 c17: z - 115 x_12 >= 0
 c18: z - 124 x_11 >= 0
 c19: z - 124 x_11 >= 0
 c20: z - 115 x_12 >= 0
 c21: z - 124 x_11 >= 0
End
